
;this file is automatically generated: Wed May 23 14:24:40 IST 2018

;declarations generated

(declare-fun S0 () Int)
(declare-fun S1 () Int)
(declare-fun S2 () Int)
(declare-fun T0 () Int)
(declare-fun T1 () Int)
(declare-fun T2 () Int)
(declare-fun T3 () Int)

;formula(s) generated
(assert (and (>= T0 0) (<= T0 2)))
(assert (and (>= T1 0) (<= T1 2)))
(assert (and (>= T2 0) (<= T2 2)))
(assert (and (>= T3 0) (<= T3 2)))
(assert (and (>= S0 0) (<= S0 1)))
(assert (and (>= S1 0) (<= S1 1)))
(assert (and (>= S2 0) (<= S2 1)))
(assert (= T0 0))
(assert (and (and (or (or (not (= T0 0) ) (not (= T1 0) )) (not (= S0 1) )) (or (or (not (= T1 0) ) (not (= T2 0) )) (not (= S1 1) ))) (or (or (not (= T2 0) ) (not (= T3 0) )) (not (= S2 1) ))))
(assert (and (and (or (or (not (= T0 0) ) (not (= T1 1) )) (not (= S0 0) )) (or (or (not (= T1 0) ) (not (= T2 1) )) (not (= S1 0) ))) (or (or (not (= T2 0) ) (not (= T3 1) )) (not (= S2 0) ))))
(assert (and (and (or (or (not (= T0 0) ) (not (= T1 2) )) (not (= S0 0) )) (or (or (not (= T1 0) ) (not (= T2 2) )) (not (= S1 0) ))) (or (or (not (= T2 0) ) (not (= T3 2) )) (not (= S2 0) ))))
(assert (and (and (or (or (not (= T0 0) ) (not (= T1 2) )) (not (= S0 1) )) (or (or (not (= T1 0) ) (not (= T2 2) )) (not (= S1 1) ))) (or (or (not (= T2 0) ) (not (= T3 2) )) (not (= S2 1) ))))
(assert (and (and (or (or (not (= T0 1) ) (not (= T1 0) )) (not (= S0 0) )) (or (or (not (= T1 1) ) (not (= T2 0) )) (not (= S1 0) ))) (or (or (not (= T2 1) ) (not (= T3 0) )) (not (= S2 0) ))))
(assert (and (and (or (or (not (= T0 1) ) (not (= T1 0) )) (not (= S0 1) )) (or (or (not (= T1 1) ) (not (= T2 0) )) (not (= S1 1) ))) (or (or (not (= T2 1) ) (not (= T3 0) )) (not (= S2 1) ))))
(assert (and (and (or (or (not (= T0 1) ) (not (= T1 1) )) (not (= S0 0) )) (or (or (not (= T1 1) ) (not (= T2 1) )) (not (= S1 0) ))) (or (or (not (= T2 1) ) (not (= T3 1) )) (not (= S2 0) ))))
(assert (and (and (or (or (not (= T0 1) ) (not (= T1 1) )) (not (= S0 1) )) (or (or (not (= T1 1) ) (not (= T2 1) )) (not (= S1 1) ))) (or (or (not (= T2 1) ) (not (= T3 1) )) (not (= S2 1) ))))
(assert (and (and (or (or (not (= T0 2) ) (not (= T1 0) )) (not (= S0 0) )) (or (or (not (= T1 2) ) (not (= T2 0) )) (not (= S1 0) ))) (or (or (not (= T2 2) ) (not (= T3 0) )) (not (= S2 0) ))))
(assert (and (and (or (or (not (= T0 2) ) (not (= T1 0) )) (not (= S0 1) )) (or (or (not (= T1 2) ) (not (= T2 0) )) (not (= S1 1) ))) (or (or (not (= T2 2) ) (not (= T3 0) )) (not (= S2 1) ))))
(assert (and (and (or (or (not (= T0 2) ) (not (= T1 2) )) (not (= S0 0) )) (or (or (not (= T1 2) ) (not (= T2 2) )) (not (= S1 0) ))) (or (or (not (= T2 2) ) (not (= T3 2) )) (not (= S2 0) ))))
(assert (and (and (or (or (not (= T0 2) ) (not (= T1 2) )) (not (= S0 1) )) (or (or (not (= T1 2) ) (not (= T2 2) )) (not (= S1 1) ))) (or (or (not (= T2 2) ) (not (= T3 2) )) (not (= S2 1) ))))
(assert (= T3 2))

 ;end of formula 
(assert (not (and (and (and (and (and (and (= S0 0) (= S1 1)) (= S2 0)) (= T0 0)) (= T1 0)) (= T2 1)) (= T3 2)) ))

(assert (not (and (and (and (and (and (and (= S0 0) (= S1 1)) (= S2 1)) (= T0 0)) (= T1 0)) (= T2 1)) (= T3 2)) ))
